Optimal - objective value 191.00000000
     20 z_0_1_1_9                1                       0
     64 z_0_3_2_6                1                       5
     85 z_0_3_4_7                1                       0
    127 z_0_4_3_8                1                     -10
    133 z_0_4_4_3                1                      -5
    153 z_0_5_1_1                1                     4.5
    172 z_0_5_3_4                1                    -0.5
    179 z_1_2_0_0                1                     2.5
    191 z_1_2_1_3                1                       0
    212 z_1_2_3_4                1         1.38888888888889
    239 z_1_5_1_4                1                       5
    247 z_1_5_2_4                1                     7.5
    258 z_1_5_3_7                1                       0
    270 z_1_6_0_8                1                       0
    277 z_1_6_1_4                1                       5
    293 z_1_6_3_0                1                       0
    326 z_1_7_1_6                1                       0
    338 z_1_7_2_7                1                       0
    412 z_2_0_4_7                1                       0
    418 z_2_2_0_2                1         -0.694444444444445
    432 z_2_2_1_7                1                       5
    450 z_2_2_3_5                1         -0.694444444444445
    473 z_2_3_2_4                1                       5
    489 z_2_3_4_0                1         5.69444444444444
    503 z_2_5_0_3                1                    -2.5
    519 z_2_5_2_0                1                    -2.5
    527 z_2_5_3_0                1                     2.5
    554 z_2_6_1_5                1                       0
    575 z_2_6_3_6                1                       0
    591 z_3_2_0_3                1                   -1.25
    597 z_3_2_1_0                1                    -2.5
    620 z_3_2_3_3                1                       0
    643 z_3_5_0_10               1                       0
    655 z_3_5_2_3                1                    -2.5
    665 z_3_5_3_5                1                     7.5
    677 z_3_6_0_6                1                       0
    690 z_3_6_1_8                1                       0
    739 z_3_7_1_10               1                       0
    745 z_3_7_2_5                1                       0
    774 z_4_2_0_1                1                    1.25
    787 z_4_2_1_5                1                    1.25
    808 z_4_2_3_6                1                  -0.625
    831 z_4_3_2_5                1                       0
    855 z_4_3_4_9                1                       0
    897 z_4_4_3_10               1                   -1.25
    900 z_4_4_4_2                1                  -0.625
    909 z_4_5_0_0                1                       5
    923 z_4_5_1_3                1                       0
    930 z_4_5_2_2                1                       1
    939 z_4_5_3_3                1                       5
    951 z_4_6_0_4                1                       0
    964 z_4_6_1_6                1                       0
   1013 z_4_7_1_8                1                   -3.75
   1025 z_4_7_2_9                1                      -5
   1099 z_5_0_4_9                1         3.88888888888889
   1119 z_5_1_1_7                1         6.11111111111111
   1123 z_5_1_2_0                1         3.33333333333333
   1155 z_5_2_0_4                1         5.41666666666667
   1164 z_5_2_1_4                1                       0
   1182 z_5_2_3_2                1                       0
   1212 z_5_3_2_8                1                      -5
   1229 z_5_3_4_5                1                       5
   1271 z_5_4_3_6                1         -6.35416666666667
   1282 z_5_4_4_6                1         3.64583333333333
   1294 z_5_5_0_7                1                     -10
   1300 z_5_5_1_2                1         -5.83333333333333
   1307 z_5_5_2_1                1         -5.83333333333333
   1329 w_0_4                    1                      10
   1331 w_1_1                    1                       0
   1332 w_1_2                    1                      10
   1335 w_2_0                    1                      10
   1336 w_2_1                    1                     7.5
   1338 w_2_3                    1                       5
   1342 w_3_2                    1                       0
   1344 w_3_4                    1                       5
   1348 w_4_3                    1                      10
   1349 w_4_4                    1                       0
   1350 w_5_0                    1                       0
   1351 w_5_1                    1                       0
   1352 w_5_2                    1                      10
   1353 w_5_3                    1                       0
   1355 w_6_0                    1                      10
   1356 w_6_1                    1                      10
   1358 w_6_3                    1                      10
   1361 w_7_1                    1                      10
   1362 w_7_2                    1                      10
   1390 o_0_4_1                  1                       0
   1391 o_0_4_2                  1                       0
   1392 o_0_4_3                  1                       0
   1393 o_0_4_4                  1                       0
   1402 o_1_1_1                  1                       0
   1403 o_1_1_2                  1                       0
   1404 o_1_1_3                  1                       0
   1405 o_1_1_4                  1                       0
   1407 o_1_2_0                  1                       0
   1425 o_2_0_0                  1                    -2.5
   1426 o_2_0_1                  1                       0
   1427 o_2_0_2                  1                       0
   1428 o_2_0_3                  1                   -1.25
   1429 o_2_0_4                  1                       0
   1431 o_2_1_0    1.00000000000228                       0
   1432 o_2_1_1    1.0000000000009         -1.38888888888889
   1433 o_2_1_2                  1                      -5
   1434 o_2_1_3    0.999999999989452                       0
   1435 o_2_1_4    1.00000000000987                       0
   1436 o_2_1_5                  1                       0
   1443 o_2_3_0                  1                       0
   1444 o_2_3_1                  1                       0
   1445 o_2_3_2                  1                       0
   1446 o_2_3_3                  1                       0
   1447 o_2_3_4                  1                       0
   1448 o_2_3_5                  1                       0
   1467 o_3_2_0    0.999999999997456                       0
   1468 o_3_2_1                  1                       0
   1469 o_3_2_2    1.0000000000005                       0
   1470 o_3_2_3    0.999999999997456                       0
   1471 o_3_2_4                  1                       0
   1472 o_3_2_5     0.999999999999                       0
   1479 o_3_4_0                  1                       0
   1480 o_3_4_1                  1                       0
   1481 o_3_4_2    1.00000000000509                       0
   1482 o_3_4_3     0.999999999999                       0
   1483 o_3_4_4    0.999999999994912                       0
   1484 o_3_4_5                  1                       0
   1503 o_4_3_0                  1                       0
   1504 o_4_3_1                  1                       0
   1505 o_4_3_2     1.000000000003                       0
   1506 o_4_3_3     1.000000000001                       0
   1507 o_4_3_4     1.000000000001                       0
   1508 o_4_3_5     1.000000000001                       0
   1509 o_4_4_0                  1                       0
   1510 o_4_4_1                  1                       0
   1511 o_4_4_2     1.000000000001                       0
   1512 o_4_4_3                  1                       0
   1515 o_5_0_0    1.00000000000718                       0
   1516 o_5_0_1    1.00000000000718                       0
   1517 o_5_0_2    1.00000000000098                       0
   1518 o_5_0_3    1.00000000000098                       0
   1519 o_5_0_4    1.00000000000187                       0
   1520 o_5_0_5                  1                       0
   1523 o_5_1_2    0.999999999989952                       0
   1524 o_5_1_3    0.999999999989952                       0
   1525 o_5_1_4                  1                       0
   1526 o_5_1_5    0.999999999989952                       0
   1527 o_5_2_0                  1                       0
   1528 o_5_2_1    1.00000000001309                       0
   1529 o_5_2_2                  1                       0
   1531 o_5_2_4                  1                       0
   1532 o_5_2_5                  1                    -6.5
   1533 o_5_3_0     1.000000000001         -4.30555555555556
   1534 o_5_3_1                  1                       0
   1535 o_5_3_2     0.999999999999                       0
   1536 o_5_3_3                  1                      -5
   1537 o_5_3_4     0.999999999999                       0
   1538 o_5_3_5                  1                       0
   1545 o_6_0_0                  1                       0
   1546 o_6_0_1                  1                       0
   1547 o_6_0_2                  1                       0
   1548 o_6_0_3     1.000000000001                       0
   1549 o_6_0_4                  1                       0
   1551 o_6_1_0     1.000000000001                       0
   1552 o_6_1_1    1.00000000000114                       0
   1553 o_6_1_2     1.000000000001                       0
   1554 o_6_1_3     1.000000000001                       0
   1555 o_6_1_4     0.999999999999                       0
   1556 o_6_1_5    1.0000000000098                       0
   1563 o_6_3_0     1.000000000001                       0
   1564 o_6_3_1                  1                       0
   1565 o_6_3_2     1.000000000001                       0
   1581 o_7_1_0                  1                       0
   1582 o_7_1_1                  1                       0
   1583 o_7_1_2                  1                       0
   1584 o_7_1_3     1.000000000001                       0
   1585 o_7_1_4                  1                       0
   1586 o_7_1_5                  1                       0
   1588 o_7_2_1                  1                       0
   1589 o_7_2_2                  1                       0
   1590 o_7_2_3                  1                       0
   1591 o_7_2_4                  1                       0
   1592 o_7_2_5                  1                       0
   1613 e_0_1_2                  1                       0
   1614 e_0_1_3                  1                       0
   1615 e_0_1_4                  1                       0
   1617 e_0_2_0                  1                       0
   1618 e_0_2_1                  1                       0
   1625 e_0_3_2                  1                       0
   1626 e_0_3_3                  1                       0
   1627 e_0_3_4                  1                       0
   1630 e_0_4_1                  1                       0
   1631 e_0_4_2                  1                       0
   1632 e_0_4_3                  1                       0
   1635 e_1_0_0                  1                       0
   1637 e_1_0_2                  1                       0
   1638 e_1_0_3                  1                       0
   1641 e_1_1_0                  1                       0
   1642 e_1_1_1                  1                       0
   1644 e_1_1_3                  1                       0
   1645 e_1_1_4                  1                       0
   1646 e_1_1_5                  1                       0
   1648 e_1_2_1                  1                       0
   1649 e_1_2_2                  1                       0
   1652 e_1_2_5                  1                       0
   1653 e_1_3_0                  1                       0
   1654 e_1_3_1                  1                       0
   1655 e_1_3_2                  1                       0
   1657 e_1_3_4                  1                       0
   1667 e_2_0_2                  1                       0
   1668 e_2_0_3                  1                       0
   1672 e_2_1_1    1.00000000000228                       0
   1673 e_2_1_2     1.000000000001                       0
   1676 e_2_1_5                  1                       0
   1677 e_2_2_0                  1                       0
   1681 e_2_2_4     1.000000000001                       0
   1683 e_2_3_0                  1         -0.694444444444445
   1684 e_2_3_1     1.000000000001                       0
   1685 e_2_3_2    0.999999999986675                       0
   1688 e_2_3_5                  1                       0
   1689 e_2_4_0     1.000000000001         -0.694444444444445
   1690 e_2_4_1    0.9999999999995                       0
   1691 e_2_4_2    0.9999999999995                       0
   1695 e_3_0_0                  1                       0
   1696 e_3_0_1                  1                       0
   1698 e_3_0_3                  1                       0
   1699 e_3_0_4    1.00000000000187                       0
   1700 e_3_0_5                  1                       0
   1701 e_3_1_0                  1                       0
   1703 e_3_1_2    0.999999999994322                       0
   1704 e_3_1_3                  1                       0
   1705 e_3_1_4    0.999999999989952                       0
   1706 e_3_1_5                  1                       0
   1711 e_3_2_4                  1                       0
   1712 e_3_2_5                  1                       0
   1716 e_3_3_3                  1                       0
   1718 e_3_3_5                  1                       0
   1725 e_4_0_0     0.999999999999                       0
   1726 e_4_0_1                  1                       0
   1729 e_4_0_4                  1                       0
   1731 e_4_1_0    1.00000000000114                       0
   1732 e_4_1_1    1.00000000000114                       0
   1733 e_4_1_2    1.0000000000005                       0
   1734 e_4_1_3                  1                   -1.25
   1735 e_4_1_4    0.99999999999975                       0
   1736 e_4_1_5    0.99999999999975                       0
   1739 e_4_2_2                  1                       0
   1740 e_4_2_3                  1                       0
   1741 e_4_2_4                  1                       0
   1742 e_4_2_5                  1                       0
   1743 e_4_3_0     1.000000000001                   -1.25
   1744 e_4_3_1                  1                  -0.625
   1746 e_4_3_3                  1                       0
   1747 e_4_3_4                  1                       0
   1748 e_4_3_5                  1                       0
   1751 e_4_4_2                  1                       0
   1752 e_4_4_3    0.999999999991629                       0
   1753 e_4_4_4                  1                       0
   1756 e_5_0_1    0.99999999999626                       0
   1757 e_5_0_2    1.00000000000058         -1.66666666666667
   1759 e_5_0_4     1.000000000001         -6.66666666666667
   1762 e_5_1_1     1.000000000001         -1.11111111111111
   1763 e_5_1_2    0.999999999998006                       0
   1764 e_5_1_3    0.999999999990821                       0
   1765 e_5_1_4    1.0000000000005                    -2.5
   1767 e_5_2_0    0.999999999997456                       0
   1768 e_5_2_1                  1                       0
   1769 e_5_2_2                  1                       0
   1770 e_5_2_3    0.999999999997456                       0
   1773 e_5_3_0                  1                       0
   1774 e_5_3_1                  1                       0
   1775 e_5_3_2    1.00000000001533                       0
   1779 e_5_4_0                  1                       0
   1780 e_5_4_1                  1                       0
   1782 e_5_4_3                  1                      -5
   1783 e_5_4_4                  1                       0
   1784 e_5_4_5                  1                       0
   1834 af_0_4_0    0.999999999998                       0
   1836 af_0_4_1    0.999999999997                       0
   1837 bf_0_4_2    0.999999999999                       0
   1838 af_0_4_2    0.999999999999                       0
   1839 bf_0_4_3                 1                       0
   1840 af_0_4_3                 1                       0
   1841 bf_0_4_4                 1                       0
   1843 bf_0_4_5                 1                       0
   1858 af_1_1_0                 1                       0
   1860 af_1_1_1                 1         -6.66666666666667
   1861 bf_1_1_2                 1                       0
   1862 af_1_1_2    0.999999999999                       0
   1863 bf_1_1_3    0.999999999999                       0
   1864 af_1_1_3                 1                       0
   1865 bf_1_1_4                 1                       0
   1867 bf_1_1_5                 1                       0
   1871 bf_1_2_1                 1                       0
   1873 bf_1_2_2    1.000000000004                       0
   1875 bf_1_2_3    1.000000000002                       0
   1877 bf_1_2_4                 1                       0
   1879 bf_1_2_5                 1                       0
   1906 af_2_0_0                 1                       0
   1907 bf_2_0_1                 1                       0
   1908 af_2_0_1                 1                       0
   1909 bf_2_0_2                 1                    -2.5
   1910 af_2_0_2                 1                       0
   1911 bf_2_0_3                 1                       0
   1912 af_2_0_3                 1                   -1.25
   1913 bf_2_0_4    0.999999999999                       0
   1915 bf_2_0_5    0.999999999999                       0
   1918 af_2_1_0                 1                       0
   1919 bf_2_1_1   1.00000000000228                       0
   1920 af_2_1_1                 1                       0
   1921 bf_2_1_2   1.00000000000228                       0
   1922 af_2_1_2   0.999999999986791                       0
   1923 bf_2_1_3   1.00000000000066                       0
   1924 af_2_1_3   0.999999999988791                       0
   1925 bf_2_1_4                 1                       0
   1926 af_2_1_4                 1                       0
   1927 bf_2_1_5   1.00000000000987                       0
   1942 af_2_3_0                 1                       0
   1943 bf_2_3_1                 1                       0
   1944 af_2_3_1                 1                       0
   1945 bf_2_3_2                 1                       0
   1946 af_2_3_2                 1                       0
   1947 bf_2_3_3                 1                       0
   1948 af_2_3_3                 1                       0
   1949 bf_2_3_4                 1                       0
   1950 af_2_3_4                 1                       0
   1951 bf_2_3_5                 1         -1.38888888888889
   1990 af_3_2_0                 1                       0
   1991 bf_3_2_1   1.00000000000354                       0
   1992 af_3_2_1   0.999999999996456                       0
   1993 bf_3_2_2   1.00000000000154                       0
   1994 af_3_2_2   0.999999999997456                       0
   1995 bf_3_2_3   1.0000000000005                       0
   1996 af_3_2_3   0.999999999996956                       0
   1997 bf_3_2_4   0.999999999997456                       0
   1998 af_3_2_4                 1                       0
   1999 bf_3_2_5                 1                       0
   2014 af_3_4_0                 1                       0
   2015 bf_3_4_1    0.999999999999                       0
   2016 af_3_4_1    1.000000000001                       0
   2017 bf_3_4_2                 1                       0
   2018 af_3_4_2    0.999999999999                       0
   2019 bf_3_4_3    0.999999999999                       0
   2020 af_3_4_3                 1                       0
   2021 bf_3_4_4    0.999999999999                       0
   2022 af_3_4_4                 1                       0
   2023 bf_3_4_5                 1                       0
   2062 af_4_3_0    0.999999999999                       0
   2063 bf_4_3_1                 1                       0
   2064 af_4_3_1    1.000000000001                       0
   2065 bf_4_3_2                 1                       0
   2066 af_4_3_2                 1                       0
   2067 bf_4_3_3    1.000000000002                       0
   2068 af_4_3_3                 1                       0
   2069 bf_4_3_4                 1                       0
   2070 af_4_3_4                 1                       0
   2071 bf_4_3_5                 1                       0
   2074 af_4_4_0                 1                       0
   2075 bf_4_4_1                 1                       0
   2076 af_4_4_1    0.999999999999                       0
   2077 bf_4_4_2    0.999999999999                       0
   2078 af_4_4_2                 1                       0
   2079 bf_4_4_3    1.000000000001                       0
   2081 bf_4_4_4                 1                       0
   2083 bf_4_4_5                 1                       0
   2086 af_5_0_0                 1                       0
   2087 bf_5_0_1                 1                       0
   2088 af_5_0_1                 1                       0
   2089 bf_5_0_2    0.999999999999                       0
   2090 af_5_0_2                 1                       0
   2091 bf_5_0_3   1.00000000000098                       0
   2092 af_5_0_3                 1                       0
   2093 bf_5_0_4                 1                       0
   2094 af_5_0_4                 1                       0
   2095 bf_5_0_5   1.00000000000187                       0
   2098 af_5_1_0                 1                       0
   2100 af_5_1_1   0.999999999989952                       0
   2102 af_5_1_2                 1                       0
   2103 bf_5_1_3                 1                       0
   2104 af_5_1_3                 1                       0
   2105 bf_5_1_4    0.999999999999                       0
   2106 af_5_1_4                 1                       0
   2107 bf_5_1_5    0.999999999999                       0
   2110 af_5_2_0                 1                       0
   2111 bf_5_2_1    1.000000000001                       0
   2112 af_5_2_1    0.999999999998                       0
   2113 bf_5_2_2                 1                       0
   2114 af_5_2_2                 1                       0
   2115 bf_5_2_3    0.999999999999                       0
   2116 af_5_2_3    0.999999999999                       0
   2117 bf_5_2_4                 1                       0
   2118 af_5_2_4                 1                       0
   2119 bf_5_2_5    0.999999999999                       0
   2122 af_5_3_0                 1                       0
   2123 bf_5_3_1                 1                       0
   2124 af_5_3_1                 1                       0
   2125 bf_5_3_2                 1                       0
   2126 af_5_3_2    0.999999999999                       0
   2127 bf_5_3_3    0.999999999998                       0
   2128 af_5_3_3    0.999999999999                       0
   2129 bf_5_3_4                 1                       0
   2130 af_5_3_4                 1                       0
   2131 bf_5_3_5    0.999999999999                       0
   2146 af_6_0_0    0.999999999999                       0
   2147 bf_6_0_1    1.000000000001                       0
   2148 af_6_0_1    0.999999999999                       0
   2149 bf_6_0_2                 1                       0
   2150 af_6_0_2    0.999999999999                       0
   2151 bf_6_0_3                 1                       0
   2152 af_6_0_3                 1                       0
   2153 bf_6_0_4                 1                       0
   2155 bf_6_0_5    0.999999999999                       0
   2158 af_6_1_0                 1                       0
   2159 bf_6_1_1                 1                       0
   2160 af_6_1_1                 1                       0
   2161 bf_6_1_2                 1                       0
   2162 af_6_1_2    0.999999999999                       0
   2163 bf_6_1_3    0.999999999999                       0
   2164 af_6_1_3                 1                       0
   2165 bf_6_1_4                 1                       0
   2166 af_6_1_4                 1                       0
   2167 bf_6_1_5                 1                       0
   2182 af_6_3_0                 1                       0
   2183 bf_6_3_1                 1                       0
   2184 af_6_3_1    0.999999999999                       0
   2185 bf_6_3_2    1.000000000001                       0
   2187 bf_6_3_3                 1                       0
   2189 bf_6_3_4    1.000000000001                       0
   2191 bf_6_3_5                 1                       0
   2218 af_7_1_0                 1                       0
   2219 bf_7_1_1                 1                       0
   2220 af_7_1_1    1.000000000001                       0
   2221 bf_7_1_2                 1                       0
   2222 af_7_1_2    0.999999999999                       0
   2223 bf_7_1_3    0.999999999999                       0
   2224 af_7_1_3                 1                       0
   2225 bf_7_1_4                 1                       0
   2226 af_7_1_4    1.000000000001                       0
   2227 bf_7_1_5                 1                       0
   2230 af_7_2_0                 1                       0
   2232 af_7_2_1                 1                       0
   2233 bf_7_2_2    1.000000000001                       0
   2234 af_7_2_2                 1                       0
   2235 bf_7_2_3                 1                       0
   2236 af_7_2_3    1.000000000001                       0
   2237 bf_7_2_4                 1                       0
   2238 af_7_2_4                 1                       0
   2239 bf_7_2_5    0.999999999999                       0
   2430 gp_5_2_3    0.999999999997                       0
